NAME: ./prFile/tspFile/tsp_file54.tsp
COMMENT: TSP file generated by Python
TYPE: TSP
DIMENSION: 40
EDGE_WEIGHT_TYPE: EUC_2D
NODE_COORD_SECTION
1 15 79
2 35 58
3 14 80
4 19 61
5 44 34
6 100 78
7 30 54
8 45 52
9 86 42
10 94 14
11 46 77
12 74 91
13 58 94
14 78 48
15 5 23
16 56 38
17 3 73
18 26 6
19 13 99
20 6 10
21 37 34
22 36 47
23 27 55
24 68 29
25 68 47
26 31 93
27 21 2
28 4 43
29 12 94
30 80 24
31 95 55
32 45 94
33 83 95
34 50 68
35 19 64
36 56 76
37 48 53
38 67 90
39 11 81
40 17 32
EOF
